Version identifier: 20.1.0.0 | 2020-11-10 | 9bedb6d68
CPXPARAM_Threads                                 1
CPXPARAM_TimeLimit                               7200
CPXPARAM_MIP_Tolerances_MIPGap                   0
Generic callback                                 0x60
1 of 1 MIP starts provided solutions.
MIP start 'm1' defined initial solution with objective 693.8331.
Tried aggregator 1 time.
Reduced MIP has 1 rows, 801 columns, and 800 nonzeros.
Reduced MIP has 800 binaries, 0 generals, 0 SOSs, and 0 indicators.
Presolve time = 0.00 sec. (0.24 ticks)
Probing time = 0.00 sec. (0.09 ticks)
Tried aggregator 1 time.
Reduced MIP has 1 rows, 801 columns, and 800 nonzeros.
Reduced MIP has 800 binaries, 0 generals, 0 SOSs, and 0 indicators.
Presolve time = 0.00 sec. (0.25 ticks)
Probing time = 0.00 sec. (0.09 ticks)
MIP emphasis: balance optimality and feasibility.
MIP search method: dynamic search.
Parallel mode: none, using 1 thread.
Root relaxation solution time = 0.00 sec. (0.17 ticks)

        Nodes                                         Cuts/
   Node  Left     Objective  IInf  Best Integer    Best Bound    ItCnt     Gap

*     0+    0                          693.8331     2716.0000           291.45%
      0     0      904.1553     2      693.8331     2716.0000        0  291.45%
      0     0      872.6083     4      693.8331 UserPurge2: 1        8   25.77%
      0     0      753.1850     3      693.8331 UserPurge2: 1       23    8.55%
      0     0      747.1763     3      693.8331 UserPurge2: 1       29    7.69%

Repeating presolve.
Tried aggregator 1 time.
MIP Presolve eliminated 0 rows and 219 columns.
Reduced MIP has 1 rows, 582 columns, and 581 nonzeros.
Reduced MIP has 581 binaries, 0 generals, 0 SOSs, and 0 indicators.
Presolve time = 0.00 sec. (0.22 ticks)
Probing time = 0.00 sec. (0.06 ticks)
Tried aggregator 1 time.
Reduced MIP has 1 rows, 582 columns, and 581 nonzeros.
Reduced MIP has 581 binaries, 0 generals, 0 SOSs, and 0 indicators.
Presolve time = 0.00 sec. (0.18 ticks)
Represolve time = 0.00 sec. (1.68 ticks)
Probing time = 0.00 sec. (0.06 ticks)
MIP emphasis: balance optimality and feasibility.
MIP search method: dynamic search.
Parallel mode: none, using 1 thread.
Root relaxation solution time = 0.00 sec. (0.80 ticks)

        Nodes                                         Cuts/
   Node  Left     Objective  IInf  Best Integer    Best Bound    ItCnt     Gap

*     0+    0                          693.8331      747.1763             7.69%
      0     0      746.7624     4      693.8331      746.7624       43    7.63%
      0     0      744.6086     4      693.8331 UserPurge2: 1       48    7.32%
      0     0      738.1761     5      693.8331 UserPurge2: 1       64    6.39%
      0     0      731.8044     5      693.8331 UserPurge2: 1       73    5.47%
      0     0      727.5818     4      693.8331 UserPurge2: 1       81    4.86%
      0     0      725.5751     5      693.8331 UserPurge2: 1       85    4.57%
*     0+    0                          695.6766      725.5751             4.30%
      0     0        cutoff            695.6766      725.5751       85    4.30%
      0     2      725.5751     5      695.6766      725.3723       85    4.27%
Elapsed time = 10.41 sec. (22.49 ticks, tree = 0.01 MB, solutions = 2)
      2     4      702.8697     7      695.6766      702.8693     3415    1.03%
*     3     3      integral     0      700.0447      702.8693     3417    0.40%
*     5     1      integral     0      701.7160      702.8660     3545    0.16%
      6     2      702.2494     8      701.7160      702.2462     4738    0.08%
      7     3      702.0837     6      701.7160      702.2450     5742    0.08%
      8     4      701.7640     8      701.7160      702.2450     6746    0.08%

User cuts applied:  1527

Root node processing (before b&c):
  Real time             =   10.41 sec. (25.06 ticks)
Sequential b&c:
  Real time             =  270.41 sec. (4100.40 ticks)
                          ------------
Total (root+branch&cut) =  280.83 sec. (4125.46 ticks)
@Parameters: 
is_S_cut                                true
is_add_all_yinF                         true
is_start_value                          true
is_usercut                              true
is_visualization                        false
uc_only_rootnode                        false

data                                    Qi
fn                                      data/Qi/instance_500_800.csv
mode                                    NewSubmodular
solver                                  cplex

p                                       2
r                                       10

EPS                                     1.0e-06
EPS_vio                                 1.0e-04
beta                                    0.10
gap                                     0.00
nodelimit                               Inf
timelimit                               7200.00


@PrintInfos
ItCnt: 6841
Current gap: 0.00 %
Termination Status: OPTIMAL
Primal Status: FEASIBLE_POINT
Solve Time: 280.83 sec
Objective Value: 701.716020
Number of Nodes:     13

CutInfo: [phase] num / time (sec) 
ZLP             [phase1]     0 / 0.00 [rLC]     0 / 0.00 [rUC]     0 / 0.00 [sLC]     0 / 0.00 [sUC]     0 / 0.00 
OldSubmodular   [phase1]     0 / 0.00 [rLC]     0 / 0.00 [rUC]     0 / 0.00 [sLC]     0 / 0.00 [sUC]     0 / 0.00 
NewSubmodular   [phase1]     0 / 0.00 [rLC]    27 / 6.92 [rUC]    24 / 1.36 [sLC]     1 / 2.02 [sUC]  1513 / 264.64 
PMP             [phase1]     0 / 0.00 [rLC]     6 / 4.23 [rUC]     0 / 0.00 [sLC]     3 / 1.96 [sUC]    22 / 23.40 
Separation Round: [phase1] 0  [rLC] 18  [rUC] 10  [sLC] 3  [sUC] 390
Root Best Bound 702.869322
Root Best Integer: 695.676582
Best Bound: 701.716020
Best Integer: 701.716020

